8
2147483647 96 67 7 20 85 61 55 
96 2147483647 28 46 35 19 67 16 
67 28 2147483647 42 62 20 33 66 
7 46 42 2147483647 43 75 51 93 
20 35 62 43 2147483647 22 28 78 
85 19 20 75 22 2147483647 2 30 
61 67 33 51 28 2 2147483647 19 
55 16 66 93 78 30 19 2147483647 
